20
16.0
0 19 5.0 0.18
1 18 4.17 0.18
2 17 3.24 0.19
3 16 2.19 0.19
4 15 1.0 0.2
5 14 6.43 0.17
6 13 5.38 0.18
7 12 4.17 0.18
8 11 2.73 0.19
9 10 1.0 0.2
10 9 7.44 0.93
11 8 5.88 0.96
12 7 3.86 1.0
13 6 2.67 0.77
14 5 2.2 0.79
15 4 1.5 0.82
16 3 0.0 3.0
17 2 0.0 3.0
18 1 0.0 3.0
